<?xml version = "1.0" standalone="yes"?>
<!-- This file has been generated by DOcplex version 2.23.222  -->
<CPLEXSolution version="1.0">
 <header
   problemName="CVRP"
   objectiveValue="7735.16"
  />
 <variables>
  <variable name="x_0_1" index="0" value="1.00000"/>
  <variable name="x_0_3" index="2" value="1.00000"/>
  <variable name="x_0_6" index="5" value="1.00000"/>
  <variable name="x_0_7" index="6" value="1.00000"/>
  <variable name="x_0_11" index="10" value="1.00000"/>
  <variable name="x_0_12" index="11" value="1.00000"/>
  <variable name="x_0_16" index="15" value="1.00000"/>
  <variable name="x_0_18" index="17" value="1.00000"/>
  <variable name="x_1_0" index="18" value="1.00000"/>
  <variable name="x_2_0" index="36" value="1.00000"/>
  <variable name="x_3_5" index="58" value="1.00000"/>
  <variable name="x_4_0" index="72" value="1.00000"/>
  <variable name="x_5_0" index="90" value="1.00000"/>
  <variable name="x_6_10" index="117" value="1.00000"/>
  <variable name="x_7_4" index="130" value="1.00000"/>
  <variable name="x_8_9" index="152" value="1.00000"/>
  <variable name="x_9_0" index="162" value="1.00000"/>
  <variable name="x_10_15" index="194" value="1.00000"/>
  <variable name="x_11_14" index="211" value="1.00000"/>
  <variable name="x_12_8" index="224" value="1.00000"/>
  <variable name="x_13_0" index="234" value="1.00000"/>
  <variable name="x_14_13" index="265" value="1.00000"/>
  <variable name="x_15_0" index="270" value="1.00000"/>
  <variable name="x_16_17" index="304" value="1.00000"/>
  <variable name="x_17_0" index="306" value="1.00000"/>
  <variable name="x_18_2" index="326" value="1.00000"/>
  <variable name="u_1" index="342" value="49.00000"/>
  <variable name="u_2" index="343" value="49.00000"/>
  <variable name="u_3" index="344" value="25.00000"/>
  <variable name="u_4" index="345" value="46.00000"/>
  <variable name="u_5" index="346" value="44.00000"/>
  <variable name="u_6" index="347" value="4.00000"/>
  <variable name="u_7" index="348" value="22.00000"/>
  <variable name="u_8" index="349" value="41.00000"/>
  <variable name="u_9" index="350" value="49.00000"/>
  <variable name="u_10" index="351" value="33.00000"/>
  <variable name="u_11" index="352" value="2.00000"/>
  <variable name="u_12" index="353" value="10.00000"/>
  <variable name="u_13" index="354" value="49.00000"/>
  <variable name="u_14" index="355" value="15.00000"/>
  <variable name="u_15" index="356" value="49.00000"/>
  <variable name="u_16" index="357" value="8.00000"/>
  <variable name="u_17" index="358" value="49.00000"/>
  <variable name="u_18" index="359" value="26.00000"/>
 </variables>
</CPLEXSolution>
